tacasBenchmarks/factorization/in_cnf/factorization16.v_rsynth.cnf
c .nnodes 80
c .nvars 32
c .nsuppvars 32
c .ids  0 1 2 3 4 5 6 7 8 9 10 11 12 13 14 15 16 17 18 19 20 21 22 23 24 25 26 27 28 29 30 31 
c .cnfids  356 355 357 358 359 360 361 362 363 364 365 366 367 368 369 370 354 353 352 351 346 350 345 344 349 343 342 339 341 340 348 347 
c .nroots 1
c .rootids 2
p cnf 371 1225
3 356 4 294 -298 0
3 -356 -4 294 -298 0
-3 -294 0
-3 356 -4 0
-3 298 0
-3 -356 4 0
4 -5 -289 0
4 5 289 0
-4 5 -289 0
-4 -5 289 0
5 6 254 0
-5 -6 0
-5 -254 0
6 -345 -354 -7 0
-6 345 0
-6 354 0
-6 7 0
7 -8 -249 0
7 8 249 0
-7 8 -249 0
-7 -8 249 0
8 9 214 0
-8 -9 0
-8 -214 0
9 -345 -353 -10 0
-9 345 0
-9 353 0
-9 10 0
10 -11 -209 0
10 11 209 0
-10 11 -209 0
-10 -11 209 0
11 12 174 0
-11 -12 0
-11 -174 0
12 -345 -352 -13 0
-12 345 0
-12 352 0
-12 13 0
13 -14 -169 0
13 14 169 0
-13 14 -169 0
-13 -14 169 0
14 15 134 0
-14 -15 0
-14 -134 0
15 -345 -351 -16 0
-15 345 0
-15 351 0
-15 16 0
16 -17 -129 0
16 17 129 0
-16 17 -129 0
-16 -17 129 0
17 18 94 0
-17 -18 0
-17 -94 0
18 -345 -350 -19 0
-18 345 0
-18 350 0
-18 19 0
19 -20 -92 0
19 20 92 0
-19 20 -92 0
-19 -20 92 0
20 21 55 0
-20 -21 0
-20 -55 0
21 -345 -349 -22 0
-21 345 0
-21 349 0
-21 22 0
22 23 -24 0
22 347 -23 24 0
22 345 -23 24 0
-22 23 24 0
-22 -23 -24 0
-22 -345 -347 24 0
23 -346 -348 0
-23 346 0
-23 348 0
24 25 52 0
-24 -25 0
-24 -52 0
25 26 27 0
-25 -26 0
-25 -27 0
26 -344 -345 -347 -348 0
-26 348 0
-26 344 0
-26 347 0
-26 345 0
27 28 -49 0
-27 -28 0
-27 49 0
28 29 30 0
-28 -29 0
-28 -30 0
29 -343 -344 -347 -348 0
-29 348 0
-29 343 0
-29 347 0
-29 344 0
30 31 -46 0
-30 -31 0
-30 46 0
31 32 33 0
-31 -32 0
-31 -33 0
32 -342 -343 -347 -348 0
-32 348 0
-32 342 0
-32 347 0
-32 343 0
33 34 -43 0
-33 -34 0
-33 43 0
34 35 36 0
-34 -35 0
-34 -36 0
35 -341 -342 -347 -348 0
-35 348 0
-35 341 0
-35 347 0
-35 342 0
36 37 -40 0
-36 -37 0
-36 40 0
37 38 39 0
-37 -38 0
-37 -39 0
38 -339 -340 -347 -348 0
-38 348 0
-38 339 0
-38 347 0
-38 340 0
39 -340 -341 -347 -348 0
-39 348 0
-39 340 0
-39 347 0
-39 341 0
40 41 -42 0
40 -41 42 0
-40 -41 -42 0
-40 41 42 0
41 -342 -347 0
-41 342 0
-41 347 0
42 -341 -348 0
-42 341 0
-42 348 0
43 44 -45 0
43 -44 45 0
-43 -44 -45 0
-43 44 45 0
44 -343 -347 0
-44 343 0
-44 347 0
45 -342 -348 0
-45 342 0
-45 348 0
46 47 -48 0
46 -47 48 0
-46 -47 -48 0
-46 47 48 0
47 -344 -347 0
-47 344 0
-47 347 0
48 -343 -348 0
-48 343 0
-48 348 0
49 50 -51 0
49 -50 51 0
-49 -50 -51 0
-49 50 51 0
50 -345 -347 0
-50 345 0
-50 347 0
51 -344 -348 0
-51 344 0
-51 348 0
52 -53 -54 0
52 53 54 0
-52 53 -54 0
-52 -53 54 0
53 -345 -348 0
-53 345 0
-53 348 0
54 -346 -347 0
-54 346 0
-54 347 0
55 56 -90 0
-55 -56 0
-55 90 0
56 57 59 0
-56 -57 0
-56 -59 0
57 -344 -349 -58 0
-57 344 0
-57 349 0
-57 58 0
58 25 -52 0
58 -25 52 0
-58 -25 -52 0
-58 25 52 0
59 60 -88 0
-59 -60 0
-59 88 0
60 61 63 0
-60 -61 0
-60 -63 0
61 -343 -349 -62 0
-61 343 0
-61 349 0
-61 62 0
62 -28 -49 0
62 28 49 0
-62 28 -49 0
-62 -28 49 0
63 64 -86 0
-63 -64 0
-63 86 0
64 65 67 0
-64 -65 0
-64 -67 0
65 -342 -349 -66 0
-65 342 0
-65 349 0
-65 66 0
66 -31 -46 0
66 31 46 0
-66 31 -46 0
-66 -31 46 0
67 68 -84 0
-67 -68 0
-67 84 0
68 69 71 0
-68 -69 0
-68 -71 0
69 -341 -349 -70 0
-69 341 0
-69 349 0
-69 70 0
70 -34 -43 0
70 34 43 0
-70 34 -43 0
-70 -34 43 0
71 72 -82 0
-71 -72 0
-71 82 0
72 73 75 0
-72 -73 0
-72 -75 0
73 -340 -349 -74 0
-73 340 0
-73 349 0
-73 74 0
74 -37 -40 0
74 37 40 0
-74 37 -40 0
-74 -37 40 0
75 -76 -80 0
-75 76 0
-75 80 0
76 -339 -349 -77 0
-76 339 0
-76 349 0
-76 77 0
77 38 -78 79 0
77 -38 -78 -79 0
77 38 78 -79 0
-77 -38 79 0
-77 -38 78 0
-77 78 79 0
-77 38 -78 -79 0
78 -341 -347 0
-78 341 0
-78 347 0
79 -340 -348 0
-79 340 0
-79 348 0
80 74 -81 0
80 -74 81 0
-80 -74 -81 0
-80 74 81 0
81 -340 -349 0
-81 340 0
-81 349 0
82 70 -83 0
82 -70 83 0
-82 -70 -83 0
-82 70 83 0
83 -341 -349 0
-83 341 0
-83 349 0
84 66 -85 0
84 -66 85 0
-84 -66 -85 0
-84 66 85 0
85 -342 -349 0
-85 342 0
-85 349 0
86 62 -87 0
86 -62 87 0
-86 -62 -87 0
-86 62 87 0
87 -343 -349 0
-87 343 0
-87 349 0
88 58 -89 0
88 -58 89 0
-88 -58 -89 0
-88 58 89 0
89 -344 -349 0
-89 344 0
-89 349 0
90 91 -22 0
90 -91 22 0
-90 -91 -22 0
-90 91 22 0
91 -345 -349 0
-91 345 0
-91 349 0
92 349 -93 0
92 -346 -349 93 0
-92 346 -349 0
-92 349 93 0
-92 -349 -93 0
93 -346 -348 -24 0
93 -346 -348 -50 0
-93 346 0
-93 348 0
-93 50 24 0
94 95 -127 0
-94 -95 0
-94 127 0
95 96 98 0
-95 -96 0
-95 -98 0
96 -344 -350 -97 0
-96 344 0
-96 350 0
-96 97 0
97 -56 -90 0
97 56 90 0
-97 56 -90 0
-97 -56 90 0
98 99 -125 0
-98 -99 0
-98 125 0
99 100 102 0
-99 -100 0
-99 -102 0
100 -343 -350 -101 0
-100 343 0
-100 350 0
-100 101 0
101 -60 -88 0
101 60 88 0
-101 60 -88 0
-101 -60 88 0
102 103 -123 0
-102 -103 0
-102 123 0
103 104 106 0
-103 -104 0
-103 -106 0
104 -342 -350 -105 0
-104 342 0
-104 350 0
-104 105 0
105 -64 -86 0
105 64 86 0
-105 64 -86 0
-105 -64 86 0
106 107 -121 0
-106 -107 0
-106 121 0
107 108 110 0
-107 -108 0
-107 -110 0
108 -341 -350 -109 0
-108 341 0
-108 350 0
-108 109 0
109 -68 -84 0
109 68 84 0
-109 68 -84 0
-109 -68 84 0
110 111 -119 0
-110 -111 0
-110 119 0
111 112 114 0
-111 -112 0
-111 -114 0
112 -340 -350 -113 0
-112 340 0
-112 350 0
-112 113 0
113 -72 -82 0
113 72 82 0
-113 72 -82 0
-113 -72 82 0
114 -115 -117 0
-114 115 0
-114 117 0
115 -339 -350 -116 0
-115 339 0
-115 350 0
-115 116 0
116 76 -80 0
116 -76 80 0
-116 -76 -80 0
-116 76 80 0
117 113 -118 0
117 -113 118 0
-117 -113 -118 0
-117 113 118 0
118 -340 -350 0
-118 340 0
-118 350 0
119 109 -120 0
119 -109 120 0
-119 -109 -120 0
-119 109 120 0
120 -341 -350 0
-120 341 0
-120 350 0
121 105 -122 0
121 -105 122 0
-121 -105 -122 0
-121 105 122 0
122 -342 -350 0
-122 342 0
-122 350 0
123 101 -124 0
123 -101 124 0
-123 -101 -124 0
-123 101 124 0
124 -343 -350 0
-124 343 0
-124 350 0
125 126 -97 0
125 -126 97 0
-125 -126 -97 0
-125 126 97 0
126 -344 -350 0
-126 344 0
-126 350 0
127 128 -19 0
127 -128 19 0
-127 -128 -19 0
-127 128 19 0
128 -345 -350 0
-128 345 0
-128 350 0
129 -130 -131 0
129 130 131 0
-129 130 -131 0
-129 -130 131 0
130 -346 -350 0
-130 346 0
-130 350 0
131 132 133 0
-131 -132 0
-131 -133 0
132 -349 -93 0
-132 349 0
-132 93 0
133 20 -92 0
-133 -20 0
-133 92 0
134 135 -167 0
-134 -135 0
-134 167 0
135 136 138 0
-135 -136 0
-135 -138 0
136 -344 -351 -137 0
-136 344 0
-136 351 0
-136 137 0
137 -95 -127 0
137 95 127 0
-137 95 -127 0
-137 -95 127 0
138 139 -165 0
-138 -139 0
-138 165 0
139 140 142 0
-139 -140 0
-139 -142 0
140 -343 -351 -141 0
-140 343 0
-140 351 0
-140 141 0
141 -99 -125 0
141 99 125 0
-141 99 -125 0
-141 -99 125 0
142 143 -163 0
-142 -143 0
-142 163 0
143 144 146 0
-143 -144 0
-143 -146 0
144 -342 -351 -145 0
-144 342 0
-144 351 0
-144 145 0
145 -103 -123 0
145 103 123 0
-145 103 -123 0
-145 -103 123 0
146 147 -161 0
-146 -147 0
-146 161 0
147 148 150 0
-147 -148 0
-147 -150 0
148 -341 -351 -149 0
-148 341 0
-148 351 0
-148 149 0
149 -107 -121 0
149 107 121 0
-149 107 -121 0
-149 -107 121 0
150 151 -159 0
-150 -151 0
-150 159 0
151 152 154 0
-151 -152 0
-151 -154 0
152 -340 -351 -153 0
-152 340 0
-152 351 0
-152 153 0
153 -111 -119 0
153 111 119 0
-153 111 -119 0
-153 -111 119 0
154 -155 -157 0
-154 155 0
-154 157 0
155 -339 -351 -156 0
-155 339 0
-155 351 0
-155 156 0
156 115 -117 0
156 -115 117 0
-156 -115 -117 0
-156 115 117 0
157 153 -158 0
157 -153 158 0
-157 -153 -158 0
-157 153 158 0
158 -340 -351 0
-158 340 0
-158 351 0
159 149 -160 0
159 -149 160 0
-159 -149 -160 0
-159 149 160 0
160 -341 -351 0
-160 341 0
-160 351 0
161 145 -162 0
161 -145 162 0
-161 -145 -162 0
-161 145 162 0
162 -342 -351 0
-162 342 0
-162 351 0
163 164 -141 0
163 -164 141 0
-163 -164 -141 0
-163 164 141 0
164 -343 -351 0
-164 343 0
-164 351 0
165 166 -137 0
165 -166 137 0
-165 -166 -137 0
-165 166 137 0
166 -344 -351 0
-166 344 0
-166 351 0
167 168 -16 0
167 -168 16 0
-167 -168 -16 0
-167 168 16 0
168 -345 -351 0
-168 345 0
-168 351 0
169 -170 -171 0
169 170 171 0
-169 170 -171 0
-169 -170 171 0
170 -346 -351 0
-170 346 0
-170 351 0
171 172 173 0
-171 -172 0
-171 -173 0
172 -346 -350 131 0
-172 346 0
-172 350 0
-172 -131 0
173 17 -129 0
-173 -17 0
-173 129 0
174 175 -207 0
-174 -175 0
-174 207 0
175 176 178 0
-175 -176 0
-175 -178 0
176 -344 -352 -177 0
-176 344 0
-176 352 0
-176 177 0
177 -135 -167 0
177 135 167 0
-177 135 -167 0
-177 -135 167 0
178 179 -205 0
-178 -179 0
-178 205 0
179 180 182 0
-179 -180 0
-179 -182 0
180 -343 -352 -181 0
-180 343 0
-180 352 0
-180 181 0
181 -139 -165 0
181 139 165 0
-181 139 -165 0
-181 -139 165 0
182 183 -203 0
-182 -183 0
-182 203 0
183 184 186 0
-183 -184 0
-183 -186 0
184 -342 -352 -185 0
-184 342 0
-184 352 0
-184 185 0
185 -143 -163 0
185 143 163 0
-185 143 -163 0
-185 -143 163 0
186 187 -201 0
-186 -187 0
-186 201 0
187 188 190 0
-187 -188 0
-187 -190 0
188 -341 -352 -189 0
-188 341 0
-188 352 0
-188 189 0
189 -147 -161 0
189 147 161 0
-189 147 -161 0
-189 -147 161 0
190 191 -199 0
-190 -191 0
-190 199 0
191 192 194 0
-191 -192 0
-191 -194 0
192 -340 -352 -193 0
-192 340 0
-192 352 0
-192 193 0
193 -151 -159 0
193 151 159 0
-193 151 -159 0
-193 -151 159 0
194 -195 -197 0
-194 195 0
-194 197 0
195 -339 -352 -196 0
-195 339 0
-195 352 0
-195 196 0
196 155 -157 0
196 -155 157 0
-196 -155 -157 0
-196 155 157 0
197 193 -198 0
197 -193 198 0
-197 -193 -198 0
-197 193 198 0
198 -340 -352 0
-198 340 0
-198 352 0
199 189 -200 0
199 -189 200 0
-199 -189 -200 0
-199 189 200 0
200 -341 -352 0
-200 341 0
-200 352 0
201 202 -185 0
201 -202 185 0
-201 -202 -185 0
-201 202 185 0
202 -342 -352 0
-202 342 0
-202 352 0
203 204 -181 0
203 -204 181 0
-203 -204 -181 0
-203 204 181 0
204 -343 -352 0
-204 343 0
-204 352 0
205 206 -177 0
205 -206 177 0
-205 -206 -177 0
-205 206 177 0
206 -344 -352 0
-206 344 0
-206 352 0
207 208 -13 0
207 -208 13 0
-207 -208 -13 0
-207 208 13 0
208 -345 -352 0
-208 345 0
-208 352 0
209 -210 -211 0
209 210 211 0
-209 210 -211 0
-209 -210 211 0
210 -346 -352 0
-210 346 0
-210 352 0
211 212 213 0
-211 -212 0
-211 -213 0
212 -346 -351 171 0
-212 346 0
-212 351 0
-212 -171 0
213 14 -169 0
-213 -14 0
-213 169 0
214 215 -247 0
-214 -215 0
-214 247 0
215 216 218 0
-215 -216 0
-215 -218 0
216 -344 -353 -217 0
-216 344 0
-216 353 0
-216 217 0
217 -175 -207 0
217 175 207 0
-217 175 -207 0
-217 -175 207 0
218 219 -245 0
-218 -219 0
-218 245 0
219 220 222 0
-219 -220 0
-219 -222 0
220 -343 -353 -221 0
-220 343 0
-220 353 0
-220 221 0
221 -179 -205 0
221 179 205 0
-221 179 -205 0
-221 -179 205 0
222 223 -243 0
-222 -223 0
-222 243 0
223 224 226 0
-223 -224 0
-223 -226 0
224 -342 -353 -225 0
-224 342 0
-224 353 0
-224 225 0
225 -183 -203 0
225 183 203 0
-225 183 -203 0
-225 -183 203 0
226 227 -241 0
-226 -227 0
-226 241 0
227 228 230 0
-227 -228 0
-227 -230 0
228 -341 -353 -229 0
-228 341 0
-228 353 0
-228 229 0
229 -187 -201 0
229 187 201 0
-229 187 -201 0
-229 -187 201 0
230 231 -239 0
-230 -231 0
-230 239 0
231 232 234 0
-231 -232 0
-231 -234 0
232 -340 -353 -233 0
-232 340 0
-232 353 0
-232 233 0
233 -191 -199 0
233 191 199 0
-233 191 -199 0
-233 -191 199 0
234 -235 -237 0
-234 235 0
-234 237 0
235 -339 -353 -236 0
-235 339 0
-235 353 0
-235 236 0
236 195 -197 0
236 -195 197 0
-236 -195 -197 0
-236 195 197 0
237 233 -238 0
237 -233 238 0
-237 -233 -238 0
-237 233 238 0
238 -340 -353 0
-238 340 0
-238 353 0
239 240 -229 0
239 -240 229 0
-239 -240 -229 0
-239 240 229 0
240 -341 -353 0
-240 341 0
-240 353 0
241 242 -225 0
241 -242 225 0
-241 -242 -225 0
-241 242 225 0
242 -342 -353 0
-242 342 0
-242 353 0
243 244 -221 0
243 -244 221 0
-243 -244 -221 0
-243 244 221 0
244 -343 -353 0
-244 343 0
-244 353 0
245 246 -217 0
245 -246 217 0
-245 -246 -217 0
-245 246 217 0
246 -344 -353 0
-246 344 0
-246 353 0
247 248 -10 0
247 -248 10 0
-247 -248 -10 0
-247 248 10 0
248 -345 -353 0
-248 345 0
-248 353 0
249 -250 -251 0
249 250 251 0
-249 250 -251 0
-249 -250 251 0
250 -346 -353 0
-250 346 0
-250 353 0
251 252 253 0
-251 -252 0
-251 -253 0
252 -346 -352 211 0
-252 346 0
-252 352 0
-252 -211 0
253 11 -209 0
-253 -11 0
-253 209 0
254 255 -287 0
-254 -255 0
-254 287 0
255 256 258 0
-255 -256 0
-255 -258 0
256 -344 -354 -257 0
-256 344 0
-256 354 0
-256 257 0
257 -215 -247 0
257 215 247 0
-257 215 -247 0
-257 -215 247 0
258 259 -285 0
-258 -259 0
-258 285 0
259 260 262 0
-259 -260 0
-259 -262 0
260 -343 -354 -261 0
-260 343 0
-260 354 0
-260 261 0
261 -219 -245 0
261 219 245 0
-261 219 -245 0
-261 -219 245 0
262 263 -283 0
-262 -263 0
-262 283 0
263 264 266 0
-263 -264 0
-263 -266 0
264 -342 -354 -265 0
-264 342 0
-264 354 0
-264 265 0
265 -223 -243 0
265 223 243 0
-265 223 -243 0
-265 -223 243 0
266 267 -281 0
-266 -267 0
-266 281 0
267 268 270 0
-267 -268 0
-267 -270 0
268 -341 -354 -269 0
-268 341 0
-268 354 0
-268 269 0
269 -227 -241 0
269 227 241 0
-269 227 -241 0
-269 -227 241 0
270 271 -279 0
-270 -271 0
-270 279 0
271 272 274 0
-271 -272 0
-271 -274 0
272 -340 -354 -273 0
-272 340 0
-272 354 0
-272 273 0
273 -231 -239 0
273 231 239 0
-273 231 -239 0
-273 -231 239 0
274 -275 -277 0
-274 275 0
-274 277 0
275 -339 -354 -276 0
-275 339 0
-275 354 0
-275 276 0
276 235 -237 0
276 -235 237 0
-276 -235 -237 0
-276 235 237 0
277 278 -273 0
277 -278 273 0
-277 -278 -273 0
-277 278 273 0
278 -340 -354 0
-278 340 0
-278 354 0
279 280 -269 0
279 -280 269 0
-279 -280 -269 0
-279 280 269 0
280 -341 -354 0
-280 341 0
-280 354 0
281 282 -265 0
281 -282 265 0
-281 -282 -265 0
-281 282 265 0
282 -342 -354 0
-282 342 0
-282 354 0
283 284 -261 0
283 -284 261 0
-283 -284 -261 0
-283 284 261 0
284 -343 -354 0
-284 343 0
-284 354 0
285 286 -257 0
285 -286 257 0
-285 -286 -257 0
-285 286 257 0
286 -344 -354 0
-286 344 0
-286 354 0
287 288 -7 0
287 -288 7 0
-287 -288 -7 0
-287 288 7 0
288 -345 -354 0
-288 345 0
-288 354 0
289 -290 -291 0
289 290 291 0
-289 290 -291 0
-289 -290 291 0
290 -346 -354 0
-290 346 0
-290 354 0
291 292 293 0
-291 -292 0
-291 -293 0
292 -346 -353 251 0
-292 346 0
-292 353 0
-292 -251 0
293 8 -249 0
-293 -8 0
-293 249 0
294 -355 -295 0
294 355 295 0
-294 355 -295 0
-294 -355 295 0
295 296 297 0
-295 -296 0
-295 -297 0
296 -346 -354 291 0
-296 346 0
-296 354 0
-296 -291 0
297 5 -289 0
-297 -5 0
-297 289 0
298 357 299 300 -302 0
298 -357 -299 300 -302 0
-298 -300 0
-298 357 -299 0
-298 302 0
-298 -357 299 0
299 -255 -287 0
299 255 287 0
-299 255 -287 0
-299 -255 287 0
300 358 -301 0
300 -358 301 0
-300 -358 -301 0
-300 358 301 0
301 -259 -285 0
301 259 285 0
-301 259 -285 0
-301 -259 285 0
302 359 303 304 -306 0
302 -359 -303 304 -306 0
-302 -304 0
-302 359 -303 0
-302 306 0
-302 -359 303 0
303 -263 -283 0
303 263 283 0
-303 263 -283 0
-303 -263 283 0
304 360 -305 0
304 -360 305 0
-304 -360 -305 0
-304 360 305 0
305 -267 -281 0
305 267 281 0
-305 267 -281 0
-305 -267 281 0
306 362 307 309 -310 0
306 -362 307 -309 -310 0
-306 310 0
-306 362 -309 0
-306 -307 0
-306 -362 309 0
307 361 -308 0
307 -361 308 0
-307 -361 -308 0
-307 361 308 0
308 -271 -279 0
308 271 279 0
-308 271 -279 0
-308 -271 279 0
309 275 -277 0
309 -275 277 0
-309 -275 -277 0
-309 275 277 0
310 -363 -311 -313 0
310 363 311 -313 0
-310 313 0
-310 -363 311 0
-310 363 -311 0
311 276 -312 0
311 -276 312 0
-311 -276 -312 0
-311 276 312 0
312 -339 -354 0
-312 339 0
-312 354 0
313 -364 -314 -316 0
313 364 314 -316 0
-313 316 0
-313 -364 314 0
-313 364 -314 0
314 236 -315 0
314 -236 315 0
-314 -236 -315 0
-314 236 315 0
315 -339 -353 0
-315 339 0
-315 353 0
316 -365 -317 -319 0
316 365 317 -319 0
-316 319 0
-316 -365 317 0
-316 365 -317 0
317 196 -318 0
317 -196 318 0
-317 -196 -318 0
-317 196 318 0
318 -339 -352 0
-318 339 0
-318 352 0
319 -366 -320 -322 0
319 366 320 -322 0
-319 322 0
-319 -366 320 0
-319 366 -320 0
320 156 -321 0
320 -156 321 0
-320 -156 -321 0
-320 156 321 0
321 -339 -351 0
-321 339 0
-321 351 0
322 -367 -323 -325 0
322 367 323 -325 0
-322 325 0
-322 -367 323 0
-322 367 -323 0
323 116 -324 0
323 -116 324 0
-323 -116 -324 0
-323 116 324 0
324 -339 -350 0
-324 339 0
-324 350 0
325 368 326 328 -332 0
325 -368 -326 328 -332 0
-325 -328 0
-325 368 -326 0
-325 332 0
-325 -368 326 0
326 327 -77 0
326 -327 77 0
-326 -327 -77 0
-326 327 77 0
327 -339 -349 0
-327 339 0
-327 349 0
328 369 -329 0
328 -369 329 0
-328 -369 -329 0
-328 369 329 0
329 330 -331 0
329 -330 331 0
-329 -330 -331 0
-329 330 331 0
330 -340 -347 0
-330 340 0
-330 347 0
331 -339 -348 0
-331 339 0
-331 348 0
332 333 336 338 0
332 333 336 337 0
-332 -333 0
-332 -336 0
-332 -337 -338 0
333 -339 -334 0
333 -339 -347 370 0
-333 339 0
-333 347 334 0
-333 -370 334 0
334 344 345 346 -335 0
-334 335 0
-334 -346 0
-334 -344 0
-334 -345 0
335 340 341 342 343 0
-335 -343 0
-335 -342 0
-335 -340 0
-335 -341 0
336 347 -370 0
336 339 -370 0
-336 370 0
-336 -339 -347 0
337 351 352 353 354 0
-337 -354 0
-337 -353 0
-337 -351 0
-337 -352 0
338 -347 348 349 350 0
-338 -350 0
-338 -349 0
-338 347 0
-338 -348 0
371 0
2 -3 0
-2 3 0
2 0

